50, 2476588
100083, 165
100020, 690
100093, 635
100089, 480
100041, 217
100036, 793
100045, 808
100038, 513
100100, 506
100039, 237
100002, 4
100009, 372
100072, 586
100100, 70
100050, 794
100049, 233
100055, 233
100075, 43
100022, 998
100061, 739
100056, 876
100062, 616
100018, 35
100017, 329
100035, 498
100093, 116
100035, 952
100060, 369
100030, 155
100010, 818
100006, 125
100082, 928
100078, 454
100037, 553
100069, 343
100068, 485
100090, 187
100096, 38
100041, 866
100099, 235
100097, 781
100059, 209
100089, 969
100049, 894
100037, 755
100024, 763
100088, 581
100016, 730
100007, 123
100081, 477
